JulietBench/Juliet_Based_Patch_Bench/qemu/CWE-190-Integer-Overflow-or-Wraparound/CVE_2014_0143_8f4754ede56e3f9ea3fd7207f4a7c4453e59285b/Resultcve3NEQ.smt2
; benchmark generated from python API
(set-info :status unknown)
(declare-fun rdi () (_ BitVec 64))
(declare-fun R () (_ BitVec 32))
(assert
 (let ((?x75 ((_ extract 22 0) rdi)))
 (let ((?x62 (concat ?x75 (_ bv0 9))))
 (let (($x80 (and (distinct R ?x62) true)))
 (let (($x72 (= R ?x62)))
 (let ((?x6 ((_ extract 31 0) rdi)))
 (let (($x11 (bvule ?x6 (_ bv4194303 32))))
 (let (($x66 (and $x11 $x72)))
 (let (($x77 (= (_ bv4294967291 32) R)))
 (let (($x46 (bvugt ?x6 (_ bv4194303 32))))
 (let (($x67 (and $x46 $x77)))
 (let (($x74 (or $x67 $x66)))
 (let (($x79 (not $x74)))
 (let (($x81 (and $x79 $x80)))
 (let (($x61 (and $x74 $x72)))
 (let (($x82 (or $x61 $x81)))
 (not $x82)))))))))))))))))
(check-sat)
